certificates/rado_a10_c2_N107.cnf
c Rad2 upper bound instance: x1 + 10*x2 - x3 = 2, interval [1,107]
p cnf 107 1080
1 9 0
-1 -9 0
1 2 19 0
-1 -2 -19 0
1 3 29 0
-1 -3 -29 0
1 4 39 0
-1 -4 -39 0
1 5 49 0
-1 -5 -49 0
1 6 59 0
-1 -6 -59 0
1 7 69 0
-1 -7 -69 0
1 8 79 0
-1 -8 -79 0
1 9 89 0
-1 -9 -89 0
1 10 99 0
-1 -10 -99 0
1 2 10 0
-1 -2 -10 0
2 20 0
-2 -20 0
2 3 30 0
-2 -3 -30 0
2 4 40 0
-2 -4 -40 0
2 5 50 0
-2 -5 -50 0
2 6 60 0
-2 -6 -60 0
2 7 70 0
-2 -7 -70 0
2 8 80 0
-2 -8 -80 0
2 9 90 0
-2 -9 -90 0
2 10 100 0
-2 -10 -100 0
1 3 11 0
-1 -3 -11 0
2 3 21 0
-2 -3 -21 0
3 31 0
-3 -31 0
3 4 41 0
-3 -4 -41 0
3 5 51 0
-3 -5 -51 0
3 6 61 0
-3 -6 -61 0
3 7 71 0
-3 -7 -71 0
3 8 81 0
-3 -8 -81 0
3 9 91 0
-3 -9 -91 0
3 10 101 0
-3 -10 -101 0
1 4 12 0
-1 -4 -12 0
2 4 22 0
-2 -4 -22 0
3 4 32 0
-3 -4 -32 0
4 42 0
-4 -42 0
4 5 52 0
-4 -5 -52 0
4 6 62 0
-4 -6 -62 0
4 7 72 0
-4 -7 -72 0
4 8 82 0
-4 -8 -82 0
4 9 92 0
-4 -9 -92 0
4 10 102 0
-4 -10 -102 0
1 5 13 0
-1 -5 -13 0
2 5 23 0
-2 -5 -23 0
3 5 33 0
-3 -5 -33 0
4 5 43 0
-4 -5 -43 0
5 53 0
-5 -53 0
5 6 63 0
-5 -6 -63 0
5 7 73 0
-5 -7 -73 0
5 8 83 0
-5 -8 -83 0
5 9 93 0
-5 -9 -93 0
5 10 103 0
-5 -10 -103 0
1 6 14 0
-1 -6 -14 0
2 6 24 0
-2 -6 -24 0
3 6 34 0
-3 -6 -34 0
4 6 44 0
-4 -6 -44 0
5 6 54 0
-5 -6 -54 0
6 64 0
-6 -64 0
6 7 74 0
-6 -7 -74 0
6 8 84 0
-6 -8 -84 0
6 9 94 0
-6 -9 -94 0
6 10 104 0
-6 -10 -104 0
1 7 15 0
-1 -7 -15 0
2 7 25 0
-2 -7 -25 0
3 7 35 0
-3 -7 -35 0
4 7 45 0
-4 -7 -45 0
5 7 55 0
-5 -7 -55 0
6 7 65 0
-6 -7 -65 0
7 75 0
-7 -75 0
7 8 85 0
-7 -8 -85 0
7 9 95 0
-7 -9 -95 0
7 10 105 0
-7 -10 -105 0
1 8 16 0
-1 -8 -16 0
2 8 26 0
-2 -8 -26 0
3 8 36 0
-3 -8 -36 0
4 8 46 0
-4 -8 -46 0
5 8 56 0
-5 -8 -56 0
6 8 66 0
-6 -8 -66 0
7 8 76 0
-7 -8 -76 0
8 86 0
-8 -86 0
8 9 96 0
-8 -9 -96 0
8 10 106 0
-8 -10 -106 0
1 9 17 0
-1 -9 -17 0
2 9 27 0
-2 -9 -27 0
3 9 37 0
-3 -9 -37 0
4 9 47 0
-4 -9 -47 0
5 9 57 0
-5 -9 -57 0
6 9 67 0
-6 -9 -67 0
7 9 77 0
-7 -9 -77 0
8 9 87 0
-8 -9 -87 0
9 97 0
-9 -97 0
9 10 107 0
-9 -10 -107 0
1 10 18 0
-1 -10 -18 0
2 10 28 0
-2 -10 -28 0
3 10 38 0
-3 -10 -38 0
4 10 48 0
-4 -10 -48 0
5 10 58 0
-5 -10 -58 0
6 10 68 0
-6 -10 -68 0
7 10 78 0
-7 -10 -78 0
8 10 88 0
-8 -10 -88 0
9 10 98 0
-9 -10 -98 0
1 11 19 0
-1 -11 -19 0
2 11 29 0
-2 -11 -29 0
3 11 39 0
-3 -11 -39 0
4 11 49 0
-4 -11 -49 0
5 11 59 0
-5 -11 -59 0
6 11 69 0
-6 -11 -69 0
7 11 79 0
-7 -11 -79 0
8 11 89 0
-8 -11 -89 0
9 11 99 0
-9 -11 -99 0
1 12 20 0
-1 -12 -20 0
2 12 30 0
-2 -12 -30 0
3 12 40 0
-3 -12 -40 0
4 12 50 0
-4 -12 -50 0
5 12 60 0
-5 -12 -60 0
6 12 70 0
-6 -12 -70 0
7 12 80 0
-7 -12 -80 0
8 12 90 0
-8 -12 -90 0
9 12 100 0
-9 -12 -100 0
1 13 21 0
-1 -13 -21 0
2 13 31 0
-2 -13 -31 0
3 13 41 0
-3 -13 -41 0
4 13 51 0
-4 -13 -51 0
5 13 61 0
-5 -13 -61 0
6 13 71 0
-6 -13 -71 0
7 13 81 0
-7 -13 -81 0
8 13 91 0
-8 -13 -91 0
9 13 101 0
-9 -13 -101 0
1 14 22 0
-1 -14 -22 0
2 14 32 0
-2 -14 -32 0
3 14 42 0
-3 -14 -42 0
4 14 52 0
-4 -14 -52 0
5 14 62 0
-5 -14 -62 0
6 14 72 0
-6 -14 -72 0
7 14 82 0
-7 -14 -82 0
8 14 92 0
-8 -14 -92 0
9 14 102 0
-9 -14 -102 0
1 15 23 0
-1 -15 -23 0
2 15 33 0
-2 -15 -33 0
3 15 43 0
-3 -15 -43 0
4 15 53 0
-4 -15 -53 0
5 15 63 0
-5 -15 -63 0
6 15 73 0
-6 -15 -73 0
7 15 83 0
-7 -15 -83 0
8 15 93 0
-8 -15 -93 0
9 15 103 0
-9 -15 -103 0
1 16 24 0
-1 -16 -24 0
2 16 34 0
-2 -16 -34 0
3 16 44 0
-3 -16 -44 0
4 16 54 0
-4 -16 -54 0
5 16 64 0
-5 -16 -64 0
6 16 74 0
-6 -16 -74 0
7 16 84 0
-7 -16 -84 0
8 16 94 0
-8 -16 -94 0
9 16 104 0
-9 -16 -104 0
1 17 25 0
-1 -17 -25 0
2 17 35 0
-2 -17 -35 0
3 17 45 0
-3 -17 -45 0
4 17 55 0
-4 -17 -55 0
5 17 65 0
-5 -17 -65 0
6 17 75 0
-6 -17 -75 0
7 17 85 0
-7 -17 -85 0
8 17 95 0
-8 -17 -95 0
9 17 105 0
-9 -17 -105 0
1 18 26 0
-1 -18 -26 0
2 18 36 0
-2 -18 -36 0
3 18 46 0
-3 -18 -46 0
4 18 56 0
-4 -18 -56 0
5 18 66 0
-5 -18 -66 0
6 18 76 0
-6 -18 -76 0
7 18 86 0
-7 -18 -86 0
8 18 96 0
-8 -18 -96 0
9 18 106 0
-9 -18 -106 0
1 19 27 0
-1 -19 -27 0
2 19 37 0
-2 -19 -37 0
3 19 47 0
-3 -19 -47 0
4 19 57 0
-4 -19 -57 0
5 19 67 0
-5 -19 -67 0
6 19 77 0
-6 -19 -77 0
7 19 87 0
-7 -19 -87 0
8 19 97 0
-8 -19 -97 0
9 19 107 0
-9 -19 -107 0
1 20 28 0
-1 -20 -28 0
2 20 38 0
-2 -20 -38 0
3 20 48 0
-3 -20 -48 0
4 20 58 0
-4 -20 -58 0
5 20 68 0
-5 -20 -68 0
6 20 78 0
-6 -20 -78 0
7 20 88 0
-7 -20 -88 0
8 20 98 0
-8 -20 -98 0
1 21 29 0
-1 -21 -29 0
2 21 39 0
-2 -21 -39 0
3 21 49 0
-3 -21 -49 0
4 21 59 0
-4 -21 -59 0
5 21 69 0
-5 -21 -69 0
6 21 79 0
-6 -21 -79 0
7 21 89 0
-7 -21 -89 0
8 21 99 0
-8 -21 -99 0
1 22 30 0
-1 -22 -30 0
2 22 40 0
-2 -22 -40 0
3 22 50 0
-3 -22 -50 0
4 22 60 0
-4 -22 -60 0
5 22 70 0
-5 -22 -70 0
6 22 80 0
-6 -22 -80 0
7 22 90 0
-7 -22 -90 0
8 22 100 0
-8 -22 -100 0
1 23 31 0
-1 -23 -31 0
2 23 41 0
-2 -23 -41 0
3 23 51 0
-3 -23 -51 0
4 23 61 0
-4 -23 -61 0
5 23 71 0
-5 -23 -71 0
6 23 81 0
-6 -23 -81 0
7 23 91 0
-7 -23 -91 0
8 23 101 0
-8 -23 -101 0
1 24 32 0
-1 -24 -32 0
2 24 42 0
-2 -24 -42 0
3 24 52 0
-3 -24 -52 0
4 24 62 0
-4 -24 -62 0
5 24 72 0
-5 -24 -72 0
6 24 82 0
-6 -24 -82 0
7 24 92 0
-7 -24 -92 0
8 24 102 0
-8 -24 -102 0
1 25 33 0
-1 -25 -33 0
2 25 43 0
-2 -25 -43 0
3 25 53 0
-3 -25 -53 0
4 25 63 0
-4 -25 -63 0
5 25 73 0
-5 -25 -73 0
6 25 83 0
-6 -25 -83 0
7 25 93 0
-7 -25 -93 0
8 25 103 0
-8 -25 -103 0
1 26 34 0
-1 -26 -34 0
2 26 44 0
-2 -26 -44 0
3 26 54 0
-3 -26 -54 0
4 26 64 0
-4 -26 -64 0
5 26 74 0
-5 -26 -74 0
6 26 84 0
-6 -26 -84 0
7 26 94 0
-7 -26 -94 0
8 26 104 0
-8 -26 -104 0
1 27 35 0
-1 -27 -35 0
2 27 45 0
-2 -27 -45 0
3 27 55 0
-3 -27 -55 0
4 27 65 0
-4 -27 -65 0
5 27 75 0
-5 -27 -75 0
6 27 85 0
-6 -27 -85 0
7 27 95 0
-7 -27 -95 0
8 27 105 0
-8 -27 -105 0
1 28 36 0
-1 -28 -36 0
2 28 46 0
-2 -28 -46 0
3 28 56 0
-3 -28 -56 0
4 28 66 0
-4 -28 -66 0
5 28 76 0
-5 -28 -76 0
6 28 86 0
-6 -28 -86 0
7 28 96 0
-7 -28 -96 0
8 28 106 0
-8 -28 -106 0
1 29 37 0
-1 -29 -37 0
2 29 47 0
-2 -29 -47 0
3 29 57 0
-3 -29 -57 0
4 29 67 0
-4 -29 -67 0
5 29 77 0
-5 -29 -77 0
6 29 87 0
-6 -29 -87 0
7 29 97 0
-7 -29 -97 0
8 29 107 0
-8 -29 -107 0
1 30 38 0
-1 -30 -38 0
2 30 48 0
-2 -30 -48 0
3 30 58 0
-3 -30 -58 0
4 30 68 0
-4 -30 -68 0
5 30 78 0
-5 -30 -78 0
6 30 88 0
-6 -30 -88 0
7 30 98 0
-7 -30 -98 0
1 31 39 0
-1 -31 -39 0
2 31 49 0
-2 -31 -49 0
3 31 59 0
-3 -31 -59 0
4 31 69 0
-4 -31 -69 0
5 31 79 0
-5 -31 -79 0
6 31 89 0
-6 -31 -89 0
7 31 99 0
-7 -31 -99 0
1 32 40 0
-1 -32 -40 0
2 32 50 0
-2 -32 -50 0
3 32 60 0
-3 -32 -60 0
4 32 70 0
-4 -32 -70 0
5 32 80 0
-5 -32 -80 0
6 32 90 0
-6 -32 -90 0
7 32 100 0
-7 -32 -100 0
1 33 41 0
-1 -33 -41 0
2 33 51 0
-2 -33 -51 0
3 33 61 0
-3 -33 -61 0
4 33 71 0
-4 -33 -71 0
5 33 81 0
-5 -33 -81 0
6 33 91 0
-6 -33 -91 0
7 33 101 0
-7 -33 -101 0
1 34 42 0
-1 -34 -42 0
2 34 52 0
-2 -34 -52 0
3 34 62 0
-3 -34 -62 0
4 34 72 0
-4 -34 -72 0
5 34 82 0
-5 -34 -82 0
6 34 92 0
-6 -34 -92 0
7 34 102 0
-7 -34 -102 0
1 35 43 0
-1 -35 -43 0
2 35 53 0
-2 -35 -53 0
3 35 63 0
-3 -35 -63 0
4 35 73 0
-4 -35 -73 0
5 35 83 0
-5 -35 -83 0
6 35 93 0
-6 -35 -93 0
7 35 103 0
-7 -35 -103 0
1 36 44 0
-1 -36 -44 0
2 36 54 0
-2 -36 -54 0
3 36 64 0
-3 -36 -64 0
4 36 74 0
-4 -36 -74 0
5 36 84 0
-5 -36 -84 0
6 36 94 0
-6 -36 -94 0
7 36 104 0
-7 -36 -104 0
1 37 45 0
-1 -37 -45 0
2 37 55 0
-2 -37 -55 0
3 37 65 0
-3 -37 -65 0
4 37 75 0
-4 -37 -75 0
5 37 85 0
-5 -37 -85 0
6 37 95 0
-6 -37 -95 0
7 37 105 0
-7 -37 -105 0
1 38 46 0
-1 -38 -46 0
2 38 56 0
-2 -38 -56 0
3 38 66 0
-3 -38 -66 0
4 38 76 0
-4 -38 -76 0
5 38 86 0
-5 -38 -86 0
6 38 96 0
-6 -38 -96 0
7 38 106 0
-7 -38 -106 0
1 39 47 0
-1 -39 -47 0
2 39 57 0
-2 -39 -57 0
3 39 67 0
-3 -39 -67 0
4 39 77 0
-4 -39 -77 0
5 39 87 0
-5 -39 -87 0
6 39 97 0
-6 -39 -97 0
7 39 107 0
-7 -39 -107 0
1 40 48 0
-1 -40 -48 0
2 40 58 0
-2 -40 -58 0
3 40 68 0
-3 -40 -68 0
4 40 78 0
-4 -40 -78 0
5 40 88 0
-5 -40 -88 0
6 40 98 0
-6 -40 -98 0
1 41 49 0
-1 -41 -49 0
2 41 59 0
-2 -41 -59 0
3 41 69 0
-3 -41 -69 0
4 41 79 0
-4 -41 -79 0
5 41 89 0
-5 -41 -89 0
6 41 99 0
-6 -41 -99 0
1 42 50 0
-1 -42 -50 0
2 42 60 0
-2 -42 -60 0
3 42 70 0
-3 -42 -70 0
4 42 80 0
-4 -42 -80 0
5 42 90 0
-5 -42 -90 0
6 42 100 0
-6 -42 -100 0
1 43 51 0
-1 -43 -51 0
2 43 61 0
-2 -43 -61 0
3 43 71 0
-3 -43 -71 0
4 43 81 0
-4 -43 -81 0
5 43 91 0
-5 -43 -91 0
6 43 101 0
-6 -43 -101 0
1 44 52 0
-1 -44 -52 0
2 44 62 0
-2 -44 -62 0
3 44 72 0
-3 -44 -72 0
4 44 82 0
-4 -44 -82 0
5 44 92 0
-5 -44 -92 0
6 44 102 0
-6 -44 -102 0
1 45 53 0
-1 -45 -53 0
2 45 63 0
-2 -45 -63 0
3 45 73 0
-3 -45 -73 0
4 45 83 0
-4 -45 -83 0
5 45 93 0
-5 -45 -93 0
6 45 103 0
-6 -45 -103 0
1 46 54 0
-1 -46 -54 0
2 46 64 0
-2 -46 -64 0
3 46 74 0
-3 -46 -74 0
4 46 84 0
-4 -46 -84 0
5 46 94 0
-5 -46 -94 0
6 46 104 0
-6 -46 -104 0
1 47 55 0
-1 -47 -55 0
2 47 65 0
-2 -47 -65 0
3 47 75 0
-3 -47 -75 0
4 47 85 0
-4 -47 -85 0
5 47 95 0
-5 -47 -95 0
6 47 105 0
-6 -47 -105 0
1 48 56 0
-1 -48 -56 0
2 48 66 0
-2 -48 -66 0
3 48 76 0
-3 -48 -76 0
4 48 86 0
-4 -48 -86 0
5 48 96 0
-5 -48 -96 0
6 48 106 0
-6 -48 -106 0
1 49 57 0
-1 -49 -57 0
2 49 67 0
-2 -49 -67 0
3 49 77 0
-3 -49 -77 0
4 49 87 0
-4 -49 -87 0
5 49 97 0
-5 -49 -97 0
6 49 107 0
-6 -49 -107 0
1 50 58 0
-1 -50 -58 0
2 50 68 0
-2 -50 -68 0
3 50 78 0
-3 -50 -78 0
4 50 88 0
-4 -50 -88 0
5 50 98 0
-5 -50 -98 0
1 51 59 0
-1 -51 -59 0
2 51 69 0
-2 -51 -69 0
3 51 79 0
-3 -51 -79 0
4 51 89 0
-4 -51 -89 0
5 51 99 0
-5 -51 -99 0
1 52 60 0
-1 -52 -60 0
2 52 70 0
-2 -52 -70 0
3 52 80 0
-3 -52 -80 0
4 52 90 0
-4 -52 -90 0
5 52 100 0
-5 -52 -100 0
1 53 61 0
-1 -53 -61 0
2 53 71 0
-2 -53 -71 0
3 53 81 0
-3 -53 -81 0
4 53 91 0
-4 -53 -91 0
5 53 101 0
-5 -53 -101 0
1 54 62 0
-1 -54 -62 0
2 54 72 0
-2 -54 -72 0
3 54 82 0
-3 -54 -82 0
4 54 92 0
-4 -54 -92 0
5 54 102 0
-5 -54 -102 0
1 55 63 0
-1 -55 -63 0
2 55 73 0
-2 -55 -73 0
3 55 83 0
-3 -55 -83 0
4 55 93 0
-4 -55 -93 0
5 55 103 0
-5 -55 -103 0
1 56 64 0
-1 -56 -64 0
2 56 74 0
-2 -56 -74 0
3 56 84 0
-3 -56 -84 0
4 56 94 0
-4 -56 -94 0
5 56 104 0
-5 -56 -104 0
1 57 65 0
-1 -57 -65 0
2 57 75 0
-2 -57 -75 0
3 57 85 0
-3 -57 -85 0
4 57 95 0
-4 -57 -95 0
5 57 105 0
-5 -57 -105 0
1 58 66 0
-1 -58 -66 0
2 58 76 0
-2 -58 -76 0
3 58 86 0
-3 -58 -86 0
4 58 96 0
-4 -58 -96 0
5 58 106 0
-5 -58 -106 0
1 59 67 0
-1 -59 -67 0
2 59 77 0
-2 -59 -77 0
3 59 87 0
-3 -59 -87 0
4 59 97 0
-4 -59 -97 0
5 59 107 0
-5 -59 -107 0
1 60 68 0
-1 -60 -68 0
2 60 78 0
-2 -60 -78 0
3 60 88 0
-3 -60 -88 0
4 60 98 0
-4 -60 -98 0
1 61 69 0
-1 -61 -69 0
2 61 79 0
-2 -61 -79 0
3 61 89 0
-3 -61 -89 0
4 61 99 0
-4 -61 -99 0
1 62 70 0
-1 -62 -70 0
2 62 80 0
-2 -62 -80 0
3 62 90 0
-3 -62 -90 0
4 62 100 0
-4 -62 -100 0
1 63 71 0
-1 -63 -71 0
2 63 81 0
-2 -63 -81 0
3 63 91 0
-3 -63 -91 0
4 63 101 0
-4 -63 -101 0
1 64 72 0
-1 -64 -72 0
2 64 82 0
-2 -64 -82 0
3 64 92 0
-3 -64 -92 0
4 64 102 0
-4 -64 -102 0
1 65 73 0
-1 -65 -73 0
2 65 83 0
-2 -65 -83 0
3 65 93 0
-3 -65 -93 0
4 65 103 0
-4 -65 -103 0
1 66 74 0
-1 -66 -74 0
2 66 84 0
-2 -66 -84 0
3 66 94 0
-3 -66 -94 0
4 66 104 0
-4 -66 -104 0
1 67 75 0
-1 -67 -75 0
2 67 85 0
-2 -67 -85 0
3 67 95 0
-3 -67 -95 0
4 67 105 0
-4 -67 -105 0
1 68 76 0
-1 -68 -76 0
2 68 86 0
-2 -68 -86 0
3 68 96 0
-3 -68 -96 0
4 68 106 0
-4 -68 -106 0
1 69 77 0
-1 -69 -77 0
2 69 87 0
-2 -69 -87 0
3 69 97 0
-3 -69 -97 0
4 69 107 0
-4 -69 -107 0
1 70 78 0
-1 -70 -78 0
2 70 88 0
-2 -70 -88 0
3 70 98 0
-3 -70 -98 0
1 71 79 0
-1 -71 -79 0
2 71 89 0
-2 -71 -89 0
3 71 99 0
-3 -71 -99 0
1 72 80 0
-1 -72 -80 0
2 72 90 0
-2 -72 -90 0
3 72 100 0
-3 -72 -100 0
1 73 81 0
-1 -73 -81 0
2 73 91 0
-2 -73 -91 0
3 73 101 0
-3 -73 -101 0
1 74 82 0
-1 -74 -82 0
2 74 92 0
-2 -74 -92 0
3 74 102 0
-3 -74 -102 0
1 75 83 0
-1 -75 -83 0
2 75 93 0
-2 -75 -93 0
3 75 103 0
-3 -75 -103 0
1 76 84 0
-1 -76 -84 0
2 76 94 0
-2 -76 -94 0
3 76 104 0
-3 -76 -104 0
1 77 85 0
-1 -77 -85 0
2 77 95 0
-2 -77 -95 0
3 77 105 0
-3 -77 -105 0
1 78 86 0
-1 -78 -86 0
2 78 96 0
-2 -78 -96 0
3 78 106 0
-3 -78 -106 0
1 79 87 0
-1 -79 -87 0
2 79 97 0
-2 -79 -97 0
3 79 107 0
-3 -79 -107 0
1 80 88 0
-1 -80 -88 0
2 80 98 0
-2 -80 -98 0
1 81 89 0
-1 -81 -89 0
2 81 99 0
-2 -81 -99 0
1 82 90 0
-1 -82 -90 0
2 82 100 0
-2 -82 -100 0
1 83 91 0
-1 -83 -91 0
2 83 101 0
-2 -83 -101 0
1 84 92 0
-1 -84 -92 0
2 84 102 0
-2 -84 -102 0
1 85 93 0
-1 -85 -93 0
2 85 103 0
-2 -85 -103 0
1 86 94 0
-1 -86 -94 0
2 86 104 0
-2 -86 -104 0
1 87 95 0
-1 -87 -95 0
2 87 105 0
-2 -87 -105 0
1 88 96 0
-1 -88 -96 0
2 88 106 0
-2 -88 -106 0
1 89 97 0
-1 -89 -97 0
2 89 107 0
-2 -89 -107 0
1 90 98 0
-1 -90 -98 0
1 91 99 0
-1 -91 -99 0
1 92 100 0
-1 -92 -100 0
1 93 101 0
-1 -93 -101 0
1 94 102 0
-1 -94 -102 0
1 95 103 0
-1 -95 -103 0
1 96 104 0
-1 -96 -104 0
1 97 105 0
-1 -97 -105 0
1 98 106 0
-1 -98 -106 0
1 99 107 0
-1 -99 -107 0
