certificates/rado_a10_c2_N107.drat
1 -106 -107 0
-1 -107 0
-107 0
-9 -99 0
-99 0
1 0
-9 0
97 0
10 0
19 0
11 0
-105 0
-89 0
-18 0
-2 0
-27 0
-8 0
0
